Input: tic-12.fixed040-Forb.dzn
============================================================
Total Runtime: 0.1431 seconds
Input parsing: 0.0036 seconds
Constraint building: 0.0650 seconds
MaxSAT solving: 0.0176 seconds
============================================================

Total variables: 24142
Total clauses: 53315
MaxSAT found with cost: N/A
NO SOLUTION FOUND
